letting n =  10
letting blocks =  [[1, 4], [1, 5], [1, 7], [1, 8], [1, 9], [1, 10], [2, 2], [2, 4], [2, 6], [2, 7], [2, 8], [2, 10], [3, 1], [3, 2], [3, 6], [3, 7], [3, 8], [3, 9], [4, 2], [4, 3], [4, 4], [4, 7], [4, 8], [5, 1], [5, 2], [5, 5], [5, 8], [5, 10], [6, 1], [6, 3], [6, 5], [6, 7], [6, 9], [7, 5], [7, 6], [7, 9], [7, 10], [8, 1], [8, 6], [8, 9], [9, 1], [9, 3], [9, 5], [9, 6], [9, 9], [9, 10], [10, 1], [10, 2], [10, 6], [10, 7], [10, 8], [10, 10]]
